webassembly/ejemplos_dzn/folder16_json_63.dzn
TERM = { '.', 's(2)', 's(4)', 'in_1', 'local_0', 'local_1', 'in_2', 'in_4', 'in_3', 's(1)', 's(0)', 's(3)', 'in_0'};
null = '.';
s = 16;
n = 12;
ndeps = 5;
max_registers_sz = 5;
NR = 2;
registers = [|'local_0', 's(0)', |'local_1', 'in_1'|];
dependencies = [|'i32.load_0', 'i32.store_14', |'i32.store_14', 'i32.store8_15', |'i32.load_2', 'i32.store_14', |'i32.load8_s_4', 'i32.store_14', |'i32.load8_u_9', 'i32.store_14'|];
GET_ENUM = { GET1, GET2, GET3, GET4, GET5, GET6, GET7};
SET_ENUM = { SET1, SET2, SET3, SET4, SET5, SET6, SET7};
TEE_ENUM = { TEE1, TEE2, TEE3, TEE4, TEE5, TEE6, TEE7};
N = 7;
OP = { 'i32.load_0', 'i32.load_2', 'i32.load8_s_4', 'i32.load8_u_9', 'i32.sub_0', 'i32.store_14', 'i32.store8_15' };
in_ops = [1, 1, 1, 1, 2, 2, 2 ];
out_ops = [1, 1, 1, 1, 1, 0, 0 ];
in1 = ['in_0', 'local_1', 'local_1', 'in_1', 'in_1', 's(4)', 'in_3' ];
in2 = ['.', '.', '.', '.', 's(3)', 'in_2', 'in_4' ];
in3 = ['.', '.', '.', '.', '.', '.', '.' ];
out1 = ['s(0)', 's(1)', 's(2)', 's(3)', 's(4)', '.', '.' ];
out2 = ['.', '.', '.', '.', '.', '.', '.' ];
out3 = ['.', '.', '.', '.', '.', '.', '.' ];
comm = [false, false, false, false, false, false, false ];
gas = [1, 1, 1, 1, 1, 1, 1 ];
sz = [1, 1, 1, 1, 1, 1, 1 ];
stor = [false, false, false, false, false, true, true ];
lb = [ 1, 1, 1, 1, 1, 1, 1 ];
ub = [ 16, 16, 16, 16, 16, 16, 16 ];
startstack = [ 'in_0', 'in_1', 'in_2', 'in_3', 'in_4', null, null, null, null, null, null, null ];
endstack = [ null, null, null, null, null, null, null, null, null, null, null, null ];
